param n := 3;
set S[1] := 1 2 3 4 5 6 7 8 9 10;
set S[2] := 1 2 3 4 5 6 7 8 9 10;
set S[3] := 1 2 3 4 5 6 7 8 9 10;

param A :=
[*,1,1,1]  1 75 2 622 3 536
[*,2,1,1]  1 524 2 893 3 239
[*,3,1,1]  1 594 2 303 3 45
[*,4,1,1]  1 803 2 208 3 113
[*,5,1,1]  1 226 2 657 3 901
[*,6,1,1]  1 22 2 448 3 134
[*,7,1,1]  1 200 2 155 3 100
[*,8,1,1]  1 804 2 7 3 130
[*,9,1,1]  1 639 2 690 3 592
[*,10,1,1]  1 745 2 125 3 698
[*,1,2,1]  1 451 2 640 3 396
[*,2,2,1]  1 517 2 509 3 379
[*,3,2,1]  1 702 2 873 3 192
[*,4,2,1]  1 217 2 67 3 380
[*,5,2,1]  1 936 2 875 3 441
[*,6,2,1]  1 126 2 604 3 770
[*,7,2,1]  1 988 2 827 3 75
[*,8,2,1]  1 512 2 466 3 603
[*,9,2,1]  1 39 2 928 3 722
[*,10,2,1]  1 404 2 609 3 538
[*,1,3,1]  1 790 2 674 3 945
[*,2,3,1]  1 179 2 922 3 112
[*,3,3,1]  1 489 2 442 3 181
[*,4,3,1]  1 289 2 783 3 681
[*,5,3,1]  1 871 2 413 3 94
[*,6,3,1]  1 624 2 196 3 796
[*,7,3,1]  1 216 2 24 3 993
[*,8,3,1]  1 401 2 899 3 378
[*,9,3,1]  1 310 2 412 3 333
[*,10,3,1]  1 458 2 890 3 939
[*,1,4,1]  1 986 2 306 3 315
[*,2,4,1]  1 803 2 870 3 355
[*,3,4,1]  1 712 2 865 3 41
[*,4,4,1]  1 584 2 411 3 493
[*,5,4,1]  1 684 2 929 3 891
[*,6,4,1]  1 587 2 681 3 706
[*,7,4,1]  1 675 2 45 3 961
[*,8,4,1]  1 480 2 571 3 657
[*,9,4,1]  1 226 2 606 3 822
[*,10,4,1]  1 232 2 904 3 686
[*,1,5,1]  1 246 2 149 3 288
[*,2,5,1]  1 306 2 439 3 649
[*,3,5,1]  1 868 2 702 3 448
[*,4,5,1]  1 928 2 783 3 481
[*,5,5,1]  1 123 2 468 3 214
[*,6,5,1]  1 100 2 501 3 141
[*,7,5,1]  1 233 2 587 3 186
[*,8,5,1]  1 309 2 341 3 908
[*,9,5,1]  1 661 2 514 3 464
[*,10,5,1]  1 442 2 866 3 418
[*,1,6,1]  1 645 2 276 3 190
[*,2,6,1]  1 275 2 79 3 415
[*,3,6,1]  1 212 2 619 3 396
[*,4,6,1]  1 530 2 160 3 807
[*,5,6,1]  1 300 2 603 3 69
[*,6,6,1]  1 737 2 771 3 637
[*,7,6,1]  1 40 2 343 3 53
[*,8,6,1]  1 658 2 847 3 466
[*,9,6,1]  1 524 2 362 3 372
[*,10,6,1]  1 295 2 417 3 138
[*,1,7,1]  1 986 2 866 3 37
[*,2,7,1]  1 610 2 72 3 43
[*,3,7,1]  1 775 2 550 3 302
[*,4,7,1]  1 969 2 743 3 752
[*,5,7,1]  1 183 2 277 3 312
[*,6,7,1]  1 450 2 643 3 184
[*,7,7,1]  1 155 2 931 3 95
[*,8,7,1]  1 213 2 697 3 284
[*,9,7,1]  1 519 2 467 3 982
[*,10,7,1]  1 639 2 571 3 264
[*,1,8,1]  1 78 2 819 3 645
[*,2,8,1]  1 462 2 93 3 60
[*,3,8,1]  1 96 2 10 3 750
[*,4,8,1]  1 350 2 558 3 63
[*,5,8,1]  1 288 2 973 3 378
[*,6,8,1]  1 539 2 98 3 48
[*,7,8,1]  1 752 2 117 3 141
[*,8,8,1]  1 214 2 26 3 496
[*,9,8,1]  1 698 2 109 3 990
[*,10,8,1]  1 213 2 379 3 983
[*,1,9,1]  1 729 2 412 3 678
[*,2,9,1]  1 593 2 726 3 767
[*,3,9,1]  1 560 2 506 3 474
[*,4,9,1]  1 165 2 696 3 102
[*,5,9,1]  1 817 2 871 3 15
[*,6,9,1]  1 819 2 597 3 633
[*,7,9,1]  1 161 2 681 3 943
[*,8,9,1]  1 588 2 311 3 707
[*,9,9,1]  1 744 2 886 3 556
[*,10,9,1]  1 604 2 411 3 683
[*,1,10,1]  1 710 2 49 3 9
[*,2,10,1]  1 494 2 974 3 919
[*,3,10,1]  1 280 2 966 3 370
[*,4,10,1]  1 110 2 824 3 778
[*,5,10,1]  1 226 2 914 3 966
[*,6,10,1]  1 729 2 274 3 524
[*,7,10,1]  1 399 2 98 3 149
[*,8,10,1]  1 887 2 768 3 961
[*,9,10,1]  1 123 2 16 3 744
[*,10,10,1]  1 502 2 964 3 875
[*,1,1,2]  1 980 2 320 3 686
[*,2,1,2]  1 106 2 605 3 312
[*,3,1,2]  1 795 2 222 3 519
[*,4,1,2]  1 57 2 341 3 332
[*,5,1,2]  1 834 2 495 3 732
[*,6,1,2]  1 146 2 248 3 343
[*,7,1,2]  1 797 2 758 3 13
[*,8,1,2]  1 886 2 24 3 691
[*,9,1,2]  1 414 2 727 3 239
[*,10,1,2]  1 777 2 377 3 608
[*,1,2,2]  1 288 2 705 3 878
[*,2,2,2]  1 657 2 373 3 497
[*,3,2,2]  1 337 2 256 3 838
[*,4,2,2]  1 751 2 69 3 291
[*,5,2,2]  1 122 2 207 3 153
[*,6,2,2]  1 691 2 491 3 86
[*,7,2,2]  1 825 2 42 3 958
[*,8,2,2]  1 712 2 557 3 519
[*,9,2,2]  1 476 2 98 3 566
[*,10,2,2]  1 574 2 100 3 550
[*,1,3,2]  1 382 2 588 3 305
[*,2,3,2]  1 864 2 450 3 196
[*,3,3,2]  1 80 2 346 3 489
[*,4,3,2]  1 86 2 709 3 702
[*,5,3,2]  1 459 2 871 3 400
[*,6,3,2]  1 857 2 554 3 67
[*,7,3,2]  1 22 2 873 3 587
[*,8,3,2]  1 285 2 284 3 435
[*,9,3,2]  1 505 2 504 3 601
[*,10,3,2]  1 833 2 539 3 703
[*,1,4,2]  1 749 2 965 3 664
[*,2,4,2]  1 171 2 178 3 660
[*,3,4,2]  1 643 2 541 3 496
[*,4,4,2]  1 519 2 900 3 968
[*,5,4,2]  1 220 2 575 3 878
[*,6,4,2]  1 888 2 346 3 270
[*,7,4,2]  1 332 2 498 3 691
[*,8,4,2]  1 681 2 209 3 415
[*,9,4,2]  1 223 2 411 3 398
[*,10,4,2]  1 991 2 812 3 326
[*,1,5,2]  1 641 2 396 3 911
[*,2,5,2]  1 120 2 323 3 903
[*,3,5,2]  1 691 2 735 3 690
[*,4,5,2]  1 776 2 80 3 829
[*,5,5,2]  1 306 2 765 3 929
[*,6,5,2]  1 792 2 164 3 518
[*,7,5,2]  1 317 2 315 3 959
[*,8,5,2]  1 131 2 570 3 137
[*,9,5,2]  1 462 2 664 3 152
[*,10,5,2]  1 394 2 812 3 687
[*,1,6,2]  1 12 2 957 3 802
[*,2,6,2]  1 831 2 311 3 224
[*,3,6,2]  1 928 2 870 3 730
[*,4,6,2]  1 123 2 42 3 93
[*,5,6,2]  1 693 2 492 3 929
[*,6,6,2]  1 568 2 937 3 560
[*,7,6,2]  1 52 2 461 3 805
[*,8,6,2]  1 13 2 986 3 736
[*,9,6,2]  1 542 2 4 3 777
[*,10,6,2]  1 406 2 643 3 494
[*,1,7,2]  1 577 2 14 3 11
[*,2,7,2]  1 540 2 440 3 153
[*,3,7,2]  1 258 2 491 3 53
[*,4,7,2]  1 675 2 12 3 549
[*,5,7,2]  1 557 2 677 3 493
[*,6,7,2]  1 842 2 321 3 484
[*,7,7,2]  1 932 2 986 3 677
[*,8,7,2]  1 635 2 637 3 61
[*,9,7,2]  1 201 2 302 3 655
[*,10,7,2]  1 108 2 45 3 667
[*,1,8,2]  1 972 2 504 3 239
[*,2,8,2]  1 523 2 197 3 64
[*,3,8,2]  1 590 2 789 3 462
[*,4,8,2]  1 292 2 46 3 657
[*,5,8,2]  1 70 2 980 3 929
[*,6,8,2]  1 830 2 68 3 282
[*,7,8,2]  1 450 2 672 3 480
[*,8,8,2]  1 441 2 315 3 118
[*,9,8,2]  1 428 2 599 3 24
[*,10,8,2]  1 890 2 732 3 510
[*,1,9,2]  1 687 2 873 3 885
[*,2,9,2]  1 491 2 776 3 553
[*,3,9,2]  1 453 2 686 3 269
[*,4,9,2]  1 17 2 114 3 542
[*,5,9,2]  1 66 2 369 3 483
[*,6,9,2]  1 430 2 379 3 357
[*,7,9,2]  1 824 2 497 3 47
[*,8,9,2]  1 630 2 573 3 173
[*,9,9,2]  1 382 2 342 3 276
[*,10,9,2]  1 231 2 169 3 724
[*,1,10,2]  1 229 2 936 3 955
[*,2,10,2]  1 861 2 608 3 621
[*,3,10,2]  1 565 2 144 3 326
[*,4,10,2]  1 962 2 104 3 782
[*,5,10,2]  1 211 2 351 3 357
[*,6,10,2]  1 299 2 355 3 7
[*,7,10,2]  1 584 2 189 3 625
[*,8,10,2]  1 907 2 191 3 729
[*,9,10,2]  1 420 2 174 3 680
[*,10,10,2]  1 531 2 718 3 296
[*,1,1,3]  1 542 2 548 3 335
[*,2,1,3]  1 454 2 498 3 130
[*,3,1,3]  1 115 2 248 3 598
[*,4,1,3]  1 197 2 448 3 347
[*,5,1,3]  1 199 2 763 3 129
[*,6,1,3]  1 919 2 775 3 844
[*,7,1,3]  1 53 2 219 3 864
[*,8,1,3]  1 269 2 679 3 380
[*,9,1,3]  1 153 2 4 3 493
[*,10,1,3]  1 291 2 899 3 400
[*,1,2,3]  1 927 2 391 3 395
[*,2,2,3]  1 220 2 333 3 399
[*,3,2,3]  1 166 2 349 3 631
[*,4,2,3]  1 242 2 949 3 886
[*,5,2,3]  1 203 2 923 3 261
[*,6,2,3]  1 692 2 448 3 680
[*,7,2,3]  1 570 2 534 3 178
[*,8,2,3]  1 523 2 616 3 680
[*,9,2,3]  1 674 2 188 3 485
[*,10,2,3]  1 181 2 817 3 593
[*,1,3,3]  1 356 2 90 3 162
[*,2,3,3]  1 137 2 732 3 560
[*,3,3,3]  1 207 2 553 3 76
[*,4,3,3]  1 107 2 407 3 577
[*,5,3,3]  1 484 2 316 3 647
[*,6,3,3]  1 398 2 971 3 921
[*,7,3,3]  1 32 2 698 3 411
[*,8,3,3]  1 505 2 809 3 131
[*,9,3,3]  1 2 2 21 3 170
[*,10,3,3]  1 214 2 363 3 974
[*,1,4,3]  1 519 2 984 3 1000
[*,2,4,3]  1 367 2 468 3 202
[*,3,4,3]  1 958 2 451 3 496
[*,4,4,3]  1 566 2 914 3 923
[*,5,4,3]  1 720 2 161 3 836
[*,6,4,3]  1 438 2 675 3 338
[*,7,4,3]  1 605 2 239 3 348
[*,8,4,3]  1 314 2 666 3 224
[*,9,4,3]  1 973 2 54 3 876
[*,10,4,3]  1 42 2 234 3 410
[*,1,5,3]  1 177 2 612 3 620
[*,2,5,3]  1 66 2 652 3 59
[*,3,5,3]  1 630 2 571 3 786
[*,4,5,3]  1 188 2 402 3 639
[*,5,5,3]  1 501 2 499 3 147
[*,6,5,3]  1 919 2 613 3 211
[*,7,5,3]  1 443 2 661 3 907
[*,8,5,3]  1 937 2 45 3 37
[*,9,5,3]  1 933 2 463 3 384
[*,10,5,3]  1 411 2 976 3 524
[*,1,6,3]  1 326 2 509 3 371
[*,2,6,3]  1 633 2 77 3 257
[*,3,6,3]  1 508 2 753 3 367
[*,4,6,3]  1 68 2 391 3 73
[*,5,6,3]  1 145 2 447 3 600
[*,6,6,3]  1 225 2 70 3 127
[*,7,6,3]  1 867 2 7 3 34
[*,8,6,3]  1 375 2 209 3 132
[*,9,6,3]  1 776 2 697 3 811
[*,10,6,3]  1 518 2 422 3 979
[*,1,7,3]  1 354 2 404 3 442
[*,2,7,3]  1 976 2 535 3 912
[*,3,7,3]  1 80 2 152 3 883
[*,4,7,3]  1 733 2 789 3 125
[*,5,7,3]  1 807 2 269 3 571
[*,6,7,3]  1 317 2 976 3 931
[*,7,7,3]  1 441 2 995 3 809
[*,8,7,3]  1 278 2 381 3 565
[*,9,7,3]  1 808 2 327 3 280
[*,10,7,3]  1 832 2 936 3 690
[*,1,8,3]  1 364 2 992 3 64
[*,2,8,3]  1 159 2 496 3 222
[*,3,8,3]  1 743 2 955 3 594
[*,4,8,3]  1 136 2 209 3 178
[*,5,8,3]  1 89 2 800 3 588
[*,6,8,3]  1 892 2 8 3 654
[*,7,8,3]  1 702 2 898 3 797
[*,8,8,3]  1 499 2 777 3 466
[*,9,8,3]  1 429 2 634 3 582
[*,10,8,3]  1 231 2 698 3 342
[*,1,9,3]  1 255 2 2 3 864
[*,2,9,3]  1 195 2 94 3 435
[*,3,9,3]  1 961 2 60 3 148
[*,4,9,3]  1 429 2 153 3 254
[*,5,9,3]  1 280 2 597 3 502
[*,6,9,3]  1 54 2 707 3 367
[*,7,9,3]  1 372 2 620 3 726
[*,8,9,3]  1 107 2 520 3 465
[*,9,9,3]  1 448 2 161 3 563
[*,10,9,3]  1 795 2 868 3 831
[*,1,10,3]  1 154 2 376 3 555
[*,2,10,3]  1 177 2 688 3 147
[*,3,10,3]  1 550 2 926 3 755
[*,4,10,3]  1 413 2 821 3 951
[*,5,10,3]  1 906 2 320 3 753
[*,6,10,3]  1 527 2 499 3 266
[*,7,10,3]  1 710 2 20 3 524
[*,8,10,3]  1 56 2 675 3 748
[*,9,10,3]  1 349 2 902 3 309
[*,10,10,3]  1 515 2 267 3 805
[*,1,1,4]  1 579 2 700 3 581
[*,2,1,4]  1 485 2 242 3 858
[*,3,1,4]  1 695 2 768 3 93
[*,4,1,4]  1 504 2 381 3 270
[*,5,1,4]  1 841 2 124 3 906
[*,6,1,4]  1 281 2 891 3 475
[*,7,1,4]  1 240 2 4 3 121
[*,8,1,4]  1 930 2 877 3 665
[*,9,1,4]  1 914 2 970 3 146
[*,10,1,4]  1 584 2 367 3 905
[*,1,2,4]  1 53 2 957 3 577
[*,2,2,4]  1 574 2 791 3 12
[*,3,2,4]  1 370 2 85 3 65
[*,4,2,4]  1 148 2 624 3 600
[*,5,2,4]  1 311 2 899 3 635
[*,6,2,4]  1 823 2 662 3 837
[*,7,2,4]  1 564 2 108 3 274
[*,8,2,4]  1 49 2 93 3 30
[*,9,2,4]  1 249 2 435 3 861
[*,10,2,4]  1 894 2 905 3 884
[*,1,3,4]  1 118 2 838 3 622
[*,2,3,4]  1 321 2 300 3 163
[*,3,3,4]  1 804 2 741 3 916
[*,4,3,4]  1 18 2 783 3 592
[*,5,3,4]  1 214 2 834 3 630
[*,6,3,4]  1 300 2 574 3 732
[*,7,3,4]  1 924 2 299 3 492
[*,8,3,4]  1 695 2 487 3 662
[*,9,3,4]  1 311 2 450 3 974
[*,10,3,4]  1 313 2 540 3 858
[*,1,4,4]  1 18 2 856 3 763
[*,2,4,4]  1 119 2 287 3 229
[*,3,4,4]  1 627 2 220 3 425
[*,4,4,4]  1 792 2 315 3 909
[*,5,4,4]  1 369 2 925 3 294
[*,6,4,4]  1 893 2 914 3 915
[*,7,4,4]  1 805 2 126 3 735
[*,8,4,4]  1 706 2 746 3 804
[*,9,4,4]  1 305 2 105 3 149
[*,10,4,4]  1 118 2 256 3 140
[*,1,5,4]  1 394 2 930 3 786
[*,2,5,4]  1 571 2 675 3 256
[*,3,5,4]  1 640 2 17 3 4
[*,4,5,4]  1 860 2 64 3 763
[*,5,5,4]  1 229 2 326 3 864
[*,6,5,4]  1 44 2 87 3 662
[*,7,5,4]  1 378 2 586 3 351
[*,8,5,4]  1 914 2 717 3 189
[*,9,5,4]  1 490 2 239 3 142
[*,10,5,4]  1 416 2 69 3 612
[*,1,6,4]  1 778 2 820 3 347
[*,2,6,4]  1 658 2 182 3 694
[*,3,6,4]  1 109 2 126 3 473
[*,4,6,4]  1 16 2 817 3 127
[*,5,6,4]  1 814 2 130 3 583
[*,6,6,4]  1 627 2 55 3 717
[*,7,6,4]  1 291 2 604 3 256
[*,8,6,4]  1 763 2 447 3 918
[*,9,6,4]  1 622 2 586 3 985
[*,10,6,4]  1 236 2 103 3 420
[*,1,7,4]  1 278 2 252 3 552
[*,2,7,4]  1 749 2 108 3 78
[*,3,7,4]  1 862 2 325 3 175
[*,4,7,4]  1 884 2 946 3 787
[*,5,7,4]  1 11 2 807 3 778
[*,6,7,4]  1 892 2 841 3 686
[*,7,7,4]  1 958 2 638 3 16
[*,8,7,4]  1 390 2 443 3 964
[*,9,7,4]  1 130 2 416 3 123
[*,10,7,4]  1 305 2 830 3 902
[*,1,8,4]  1 931 2 10 3 627
[*,2,8,4]  1 456 2 34 3 494
[*,3,8,4]  1 734 2 966 3 431
[*,4,8,4]  1 74 2 50 3 123
[*,5,8,4]  1 5 2 612 3 964
[*,6,8,4]  1 504 2 640 3 464
[*,7,8,4]  1 533 2 862 3 556
[*,8,8,4]  1 730 2 970 3 779
[*,9,8,4]  1 383 2 476 3 83
[*,10,8,4]  1 920 2 856 3 438
[*,1,9,4]  1 462 2 912 3 209
[*,2,9,4]  1 661 2 770 3 333
[*,3,9,4]  1 474 2 718 3 439
[*,4,9,4]  1 344 2 954 3 400
[*,5,9,4]  1 445 2 289 3 51
[*,6,9,4]  1 235 2 609 3 948
[*,7,9,4]  1 494 2 823 3 34
[*,8,9,4]  1 225 2 770 3 689
[*,9,9,4]  1 889 2 747 3 201
[*,10,9,4]  1 324 2 723 3 222
[*,1,10,4]  1 719 2 127 3 903
[*,2,10,4]  1 448 2 810 3 202
[*,3,10,4]  1 563 2 533 3 525
[*,4,10,4]  1 356 2 654 3 238
[*,5,10,4]  1 717 2 190 3 319
[*,6,10,4]  1 337 2 861 3 850
[*,7,10,4]  1 805 2 569 3 918
[*,8,10,4]  1 905 2 594 3 32
[*,9,10,4]  1 698 2 795 3 225
[*,10,10,4]  1 867 2 98 3 469
[*,1,1,5]  1 543 2 671 3 410
[*,2,1,5]  1 177 2 755 3 390
[*,3,1,5]  1 597 2 837 3 717
[*,4,1,5]  1 348 2 101 3 44
[*,5,1,5]  1 337 2 677 3 243
[*,6,1,5]  1 596 2 847 3 646
[*,7,1,5]  1 756 2 338 3 960
[*,8,1,5]  1 311 2 297 3 251
[*,9,1,5]  1 614 2 447 3 94
[*,10,1,5]  1 958 2 80 3 940
[*,1,2,5]  1 985 2 270 3 704
[*,2,2,5]  1 714 2 225 3 921
[*,3,2,5]  1 450 2 763 3 372
[*,4,2,5]  1 416 2 704 3 58
[*,5,2,5]  1 478 2 792 3 528
[*,6,2,5]  1 952 2 553 3 114
[*,7,2,5]  1 635 2 178 3 17
[*,8,2,5]  1 762 2 903 3 703
[*,9,2,5]  1 401 2 899 3 175
[*,10,2,5]  1 515 2 99 3 23
[*,1,3,5]  1 389 2 874 3 370
[*,2,3,5]  1 195 2 874 3 683
[*,3,3,5]  1 100 2 332 3 744
[*,4,3,5]  1 427 2 80 3 954
[*,5,3,5]  1 910 2 530 3 658
[*,6,3,5]  1 915 2 167 3 121
[*,7,3,5]  1 678 2 919 3 185
[*,8,3,5]  1 892 2 560 3 100
[*,9,3,5]  1 6 2 170 3 210
[*,10,3,5]  1 534 2 816 3 388
[*,1,4,5]  1 225 2 319 3 357
[*,2,4,5]  1 813 2 498 3 774
[*,3,4,5]  1 319 2 827 3 908
[*,4,4,5]  1 391 2 468 3 18
[*,5,4,5]  1 254 2 404 3 37
[*,6,4,5]  1 68 2 969 3 209
[*,7,4,5]  1 145 2 762 3 423
[*,8,4,5]  1 448 2 614 3 400
[*,9,4,5]  1 848 2 236 3 557
[*,10,4,5]  1 608 2 987 3 880
[*,1,5,5]  1 566 2 795 3 583
[*,2,5,5]  1 462 2 141 3 520
[*,3,5,5]  1 737 2 807 3 245
[*,4,5,5]  1 602 2 998 3 699
[*,5,5,5]  1 522 2 142 3 720
[*,6,5,5]  1 673 2 755 3 511
[*,7,5,5]  1 925 2 373 3 619
[*,8,5,5]  1 977 2 378 3 233
[*,9,5,5]  1 614 2 884 3 66
[*,10,5,5]  1 203 2 378 3 194
[*,1,6,5]  1 607 2 347 3 215
[*,2,6,5]  1 772 2 364 3 407
[*,3,6,5]  1 787 2 4 3 217
[*,4,6,5]  1 829 2 388 3 204
[*,5,6,5]  1 992 2 340 3 121
[*,6,6,5]  1 818 2 542 3 897
[*,7,6,5]  1 610 2 580 3 330
[*,8,6,5]  1 693 2 570 3 651
[*,9,6,5]  1 183 2 984 3 675
[*,10,6,5]  1 253 2 536 3 668
[*,1,7,5]  1 704 2 460 3 127
[*,2,7,5]  1 928 2 850 3 628
[*,3,7,5]  1 576 2 751 3 414
[*,4,7,5]  1 399 2 715 3 808
[*,5,7,5]  1 854 2 358 3 831
[*,6,7,5]  1 998 2 296 3 169
[*,7,7,5]  1 228 2 960 3 173
[*,8,7,5]  1 479 2 639 3 964
[*,9,7,5]  1 613 2 953 3 41
[*,10,7,5]  1 921 2 543 3 556
[*,1,8,5]  1 388 2 672 3 298
[*,2,8,5]  1 607 2 615 3 339
[*,3,8,5]  1 628 2 172 3 19
[*,4,8,5]  1 281 2 647 3 97
[*,5,8,5]  1 797 2 111 3 212
[*,6,8,5]  1 352 2 63 3 321
[*,7,8,5]  1 638 2 365 3 176
[*,8,8,5]  1 264 2 445 3 744
[*,9,8,5]  1 558 2 666 3 53
[*,10,8,5]  1 92 2 475 3 358
[*,1,9,5]  1 944 2 642 3 477
[*,2,9,5]  1 622 2 828 3 72
[*,3,9,5]  1 225 2 423 3 807
[*,4,9,5]  1 189 2 522 3 779
[*,5,9,5]  1 302 2 128 3 202
[*,6,9,5]  1 709 2 834 3 325
[*,7,9,5]  1 393 2 533 3 297
[*,8,9,5]  1 814 2 377 3 750
[*,9,9,5]  1 509 2 337 3 904
[*,10,9,5]  1 397 2 203 3 324
[*,1,10,5]  1 350 2 535 3 542
[*,2,10,5]  1 74 2 554 3 525
[*,3,10,5]  1 488 2 345 3 521
[*,4,10,5]  1 788 2 22 3 160
[*,5,10,5]  1 419 2 74 3 323
[*,6,10,5]  1 786 2 482 3 634
[*,7,10,5]  1 483 2 800 3 474
[*,8,10,5]  1 299 2 228 3 607
[*,9,10,5]  1 362 2 169 3 436
[*,10,10,5]  1 1 2 714 3 541
[*,1,1,6]  1 933 2 204 3 126
[*,2,1,6]  1 705 2 162 3 284
[*,3,1,6]  1 685 2 485 3 867
[*,4,1,6]  1 41 2 53 3 706
[*,5,1,6]  1 816 2 236 3 284
[*,6,1,6]  1 340 2 963 3 511
[*,7,1,6]  1 887 2 688 3 158
[*,8,1,6]  1 476 2 949 3 841
[*,9,1,6]  1 687 2 209 3 404
[*,10,1,6]  1 600 2 436 3 854
[*,1,2,6]  1 596 2 201 3 487
[*,2,2,6]  1 90 2 379 3 460
[*,3,2,6]  1 250 2 991 3 917
[*,4,2,6]  1 432 2 76 3 211
[*,5,2,6]  1 180 2 258 3 419
[*,6,2,6]  1 466 2 913 3 653
[*,7,2,6]  1 221 2 22 3 505
[*,8,2,6]  1 402 2 183 3 257
[*,9,2,6]  1 751 2 301 3 979
[*,10,2,6]  1 401 2 970 3 225
[*,1,3,6]  1 263 2 240 3 338
[*,2,3,6]  1 376 2 541 3 902
[*,3,3,6]  1 557 2 320 3 591
[*,4,3,6]  1 858 2 201 3 123
[*,5,3,6]  1 115 2 913 3 150
[*,6,3,6]  1 729 2 770 3 264
[*,7,3,6]  1 552 2 789 3 526
[*,8,3,6]  1 691 2 652 3 242
[*,9,3,6]  1 548 2 542 3 641
[*,10,3,6]  1 355 2 459 3 473
[*,1,4,6]  1 418 2 344 3 865
[*,2,4,6]  1 827 2 767 3 382
[*,3,4,6]  1 512 2 125 3 999
[*,4,4,6]  1 564 2 277 3 406
[*,5,4,6]  1 558 2 370 3 500
[*,6,4,6]  1 29 2 420 3 255
[*,7,4,6]  1 805 2 136 3 382
[*,8,4,6]  1 276 2 672 3 176
[*,9,4,6]  1 502 2 70 3 499
[*,10,4,6]  1 761 2 4 3 78
[*,1,5,6]  1 770 2 666 3 948
[*,2,5,6]  1 650 2 292 3 953
[*,3,5,6]  1 850 2 534 3 115
[*,4,5,6]  1 62 2 191 3 310
[*,5,5,6]  1 920 2 171 3 498
[*,6,5,6]  1 538 2 132 3 332
[*,7,5,6]  1 233 2 716 3 975
[*,8,5,6]  1 657 2 248 3 698
[*,9,5,6]  1 1 2 304 3 983
[*,10,5,6]  1 847 2 379 3 162
[*,1,6,6]  1 893 2 57 3 350
[*,2,6,6]  1 863 2 805 3 749
[*,3,6,6]  1 846 2 231 3 55
[*,4,6,6]  1 73 2 178 3 342
[*,5,6,6]  1 284 2 855 3 118
[*,6,6,6]  1 119 2 692 3 279
[*,7,6,6]  1 420 2 805 3 446
[*,8,6,6]  1 884 2 33 3 686
[*,9,6,6]  1 641 2 245 3 839
[*,10,6,6]  1 194 2 910 3 597
[*,1,7,6]  1 720 2 845 3 325
[*,2,7,6]  1 758 2 173 3 537
[*,3,7,6]  1 723 2 928 3 485
[*,4,7,6]  1 392 2 956 3 339
[*,5,7,6]  1 697 2 672 3 854
[*,6,7,6]  1 251 2 172 3 306
[*,7,7,6]  1 886 2 524 3 650
[*,8,7,6]  1 203 2 600 3 817
[*,9,7,6]  1 57 2 849 3 932
[*,10,7,6]  1 515 2 180 3 642
[*,1,8,6]  1 374 2 611 3 584
[*,2,8,6]  1 47 2 821 3 135
[*,3,8,6]  1 746 2 935 3 633
[*,4,8,6]  1 176 2 479 3 383
[*,5,8,6]  1 89 2 200 3 148
[*,6,8,6]  1 843 2 918 3 142
[*,7,8,6]  1 51 2 787 3 76
[*,8,8,6]  1 720 2 615 3 879
[*,9,8,6]  1 250 2 504 3 731
[*,10,8,6]  1 258 2 850 3 565
[*,1,9,6]  1 622 2 750 3 380
[*,2,9,6]  1 906 2 152 3 684
[*,3,9,6]  1 202 2 502 3 360
[*,4,9,6]  1 527 2 609 3 458
[*,5,9,6]  1 307 2 722 3 59
[*,6,9,6]  1 730 2 45 3 988
[*,7,9,6]  1 190 2 846 3 608
[*,8,9,6]  1 782 2 920 3 322
[*,9,9,6]  1 478 2 843 3 538
[*,10,9,6]  1 764 2 873 3 482
[*,1,10,6]  1 213 2 215 3 548
[*,2,10,6]  1 803 2 733 3 934
[*,3,10,6]  1 566 2 131 3 635
[*,4,10,6]  1 639 2 584 3 695
[*,5,10,6]  1 65 2 231 3 818
[*,6,10,6]  1 91 2 894 3 131
[*,7,10,6]  1 750 2 80 3 601
[*,8,10,6]  1 686 2 46 3 81
[*,9,10,6]  1 415 2 529 3 900
[*,10,10,6]  1 85 2 18 3 386
[*,1,1,7]  1 210 2 776 3 913
[*,2,1,7]  1 598 2 565 3 405
[*,3,1,7]  1 179 2 537 3 19
[*,4,1,7]  1 259 2 923 3 163
[*,5,1,7]  1 13 2 678 3 213
[*,6,1,7]  1 217 2 629 3 184
[*,7,1,7]  1 657 2 916 3 536
[*,8,1,7]  1 693 2 58 3 578
[*,9,1,7]  1 635 2 711 3 807
[*,10,1,7]  1 278 2 408 3 139
[*,1,2,7]  1 730 2 530 3 411
[*,2,2,7]  1 554 2 146 3 962
[*,3,2,7]  1 185 2 851 3 789
[*,4,2,7]  1 160 2 97 3 727
[*,5,2,7]  1 50 2 138 3 264
[*,6,2,7]  1 761 2 756 3 422
[*,7,2,7]  1 779 2 813 3 297
[*,8,2,7]  1 333 2 889 3 5
[*,9,2,7]  1 457 2 858 3 675
[*,10,2,7]  1 841 2 768 3 477
[*,1,3,7]  1 22 2 903 3 529
[*,2,3,7]  1 367 2 365 3 107
[*,3,3,7]  1 892 2 722 3 762
[*,4,3,7]  1 764 2 598 3 303
[*,5,3,7]  1 369 2 508 3 977
[*,6,3,7]  1 940 2 225 3 720
[*,7,3,7]  1 843 2 410 3 635
[*,8,3,7]  1 246 2 758 3 39
[*,9,3,7]  1 75 2 51 3 944
[*,10,3,7]  1 370 2 714 3 950
[*,1,4,7]  1 809 2 499 3 123
[*,2,4,7]  1 704 2 657 3 981
[*,3,4,7]  1 703 2 583 3 649
[*,4,4,7]  1 762 2 676 3 970
[*,5,4,7]  1 496 2 236 3 229
[*,6,4,7]  1 686 2 685 3 373
[*,7,4,7]  1 551 2 515 3 266
[*,8,4,7]  1 819 2 42 3 815
[*,9,4,7]  1 336 2 32 3 946
[*,10,4,7]  1 232 2 434 3 796
[*,1,5,7]  1 13 2 233 3 953
[*,2,5,7]  1 921 2 575 3 619
[*,3,5,7]  1 569 2 509 3 586
[*,4,5,7]  1 209 2 410 3 985
[*,5,5,7]  1 764 2 631 3 359
[*,6,5,7]  1 949 2 984 3 485
[*,7,5,7]  1 469 2 33 3 410
[*,8,5,7]  1 228 2 912 3 134
[*,9,5,7]  1 729 2 759 3 283
[*,10,5,7]  1 822 2 999 3 66
[*,1,6,7]  1 365 2 240 3 262
[*,2,6,7]  1 264 2 652 3 509
[*,3,6,7]  1 101 2 36 3 10
[*,4,6,7]  1 538 2 724 3 762
[*,5,6,7]  1 900 2 118 3 13
[*,6,6,7]  1 621 2 443 3 368
[*,7,6,7]  1 199 2 555 3 480
[*,8,6,7]  1 920 2 483 3 260
[*,9,6,7]  1 462 2 705 3 962
[*,10,6,7]  1 325 2 664 3 865
[*,1,7,7]  1 690 2 193 3 718
[*,2,7,7]  1 61 2 547 3 906
[*,3,7,7]  1 955 2 463 3 900
[*,4,7,7]  1 479 2 337 3 751
[*,5,7,7]  1 662 2 296 3 55
[*,6,7,7]  1 761 2 484 3 163
[*,7,7,7]  1 18 2 807 3 283
[*,8,7,7]  1 513 2 520 3 303
[*,9,7,7]  1 207 2 774 3 344
[*,10,7,7]  1 24 2 445 3 117
[*,1,8,7]  1 467 2 231 3 986
[*,2,8,7]  1 633 2 276 3 955
[*,3,8,7]  1 563 2 475 3 931
[*,4,8,7]  1 903 2 524 3 670
[*,5,8,7]  1 94 2 825 3 304
[*,6,8,7]  1 112 2 750 3 690
[*,7,8,7]  1 506 2 700 3 259
[*,8,8,7]  1 677 2 334 3 726
[*,9,8,7]  1 89 2 838 3 276
[*,10,8,7]  1 380 2 929 3 238
[*,1,9,7]  1 474 2 691 3 955
[*,2,9,7]  1 540 2 182 3 289
[*,3,9,7]  1 136 2 291 3 82
[*,4,9,7]  1 146 2 332 3 608
[*,5,9,7]  1 995 2 847 3 843
[*,6,9,7]  1 572 2 691 3 986
[*,7,9,7]  1 789 2 409 3 103
[*,8,9,7]  1 32 2 377 3 449
[*,9,9,7]  1 228 2 346 3 675
[*,10,9,7]  1 927 2 387 3 87
[*,1,10,7]  1 983 2 921 3 344
[*,2,10,7]  1 409 2 275 3 129
[*,3,10,7]  1 956 2 701 3 476
[*,4,10,7]  1 690 2 669 3 622
[*,5,10,7]  1 518 2 7 3 181
[*,6,10,7]  1 335 2 232 3 335
[*,7,10,7]  1 31 2 640 3 125
[*,8,10,7]  1 949 2 686 3 691
[*,9,10,7]  1 16 2 855 3 960
[*,10,10,7]  1 599 2 300 3 333
[*,1,1,8]  1 235 2 490 3 370
[*,2,1,8]  1 100 2 998 3 534
[*,3,1,8]  1 313 2 488 3 682
[*,4,1,8]  1 52 2 561 3 862
[*,5,1,8]  1 646 2 36 3 620
[*,6,1,8]  1 418 2 417 3 359
[*,7,1,8]  1 324 2 639 3 979
[*,8,1,8]  1 465 2 354 3 926
[*,9,1,8]  1 980 2 574 3 883
[*,10,1,8]  1 350 2 234 3 319
[*,1,2,8]  1 311 2 50 3 761
[*,2,2,8]  1 211 2 997 3 519
[*,3,2,8]  1 931 2 580 3 800
[*,4,2,8]  1 932 2 985 3 423
[*,5,2,8]  1 14 2 684 3 311
[*,6,2,8]  1 119 2 965 3 533
[*,7,2,8]  1 378 2 115 3 173
[*,8,2,8]  1 78 2 160 3 496
[*,9,2,8]  1 435 2 834 3 213
[*,10,2,8]  1 824 2 640 3 820
[*,1,3,8]  1 305 2 735 3 429
[*,2,3,8]  1 409 2 651 3 596
[*,3,3,8]  1 18 2 162 3 344
[*,4,3,8]  1 909 2 673 3 525
[*,5,3,8]  1 554 2 298 3 320
[*,6,3,8]  1 539 2 399 3 608
[*,7,3,8]  1 741 2 166 3 196
[*,8,3,8]  1 82 2 646 3 469
[*,9,3,8]  1 952 2 636 3 678
[*,10,3,8]  1 606 2 551 3 953
[*,1,4,8]  1 40 2 539 3 71
[*,2,4,8]  1 508 2 38 3 448
[*,3,4,8]  1 82 2 654 3 283
[*,4,4,8]  1 24 2 551 3 582
[*,5,4,8]  1 675 2 265 3 202
[*,6,4,8]  1 318 2 596 3 895
[*,7,4,8]  1 802 2 907 3 915
[*,8,4,8]  1 234 2 839 3 597
[*,9,4,8]  1 500 2 242 3 515
[*,10,4,8]  1 129 2 976 3 407
[*,1,5,8]  1 780 2 231 3 315
[*,2,5,8]  1 376 2 409 3 15
[*,3,5,8]  1 734 2 524 3 718
[*,4,5,8]  1 252 2 39 3 131
[*,5,5,8]  1 624 2 456 3 214
[*,6,5,8]  1 503 2 174 3 285
[*,7,5,8]  1 600 2 137 3 535
[*,8,5,8]  1 1 2 406 3 1000
[*,9,5,8]  1 731 2 667 3 709
[*,10,5,8]  1 86 2 63 3 282
[*,1,6,8]  1 281 2 693 3 244
[*,2,6,8]  1 310 2 813 3 256
[*,3,6,8]  1 773 2 887 3 114
[*,4,6,8]  1 179 2 957 3 553
[*,5,6,8]  1 878 2 811 3 304
[*,6,6,8]  1 534 2 473 3 622
[*,7,6,8]  1 705 2 421 3 992
[*,8,6,8]  1 655 2 947 3 614
[*,9,6,8]  1 502 2 561 3 620
[*,10,6,8]  1 36 2 34 3 847
[*,1,7,8]  1 399 2 442 3 343
[*,2,7,8]  1 510 2 23 3 105
[*,3,7,8]  1 888 2 865 3 26
[*,4,7,8]  1 793 2 821 3 252
[*,5,7,8]  1 430 2 713 3 939
[*,6,7,8]  1 215 2 151 3 561
[*,7,7,8]  1 760 2 966 3 834
[*,8,7,8]  1 868 2 852 3 172
[*,9,7,8]  1 192 2 621 3 527
[*,10,7,8]  1 589 2 705 3 507
[*,1,8,8]  1 855 2 672 3 692
[*,2,8,8]  1 217 2 682 3 42
[*,3,8,8]  1 377 2 925 3 35
[*,4,8,8]  1 610 2 541 3 479
[*,5,8,8]  1 841 2 243 3 747
[*,6,8,8]  1 823 2 360 3 83
[*,7,8,8]  1 947 2 877 3 121
[*,8,8,8]  1 16 2 459 3 446
[*,9,8,8]  1 438 2 331 3 943
[*,10,8,8]  1 708 2 763 3 318
[*,1,9,8]  1 6 2 505 3 241
[*,2,9,8]  1 403 2 501 3 950
[*,3,9,8]  1 829 2 421 3 423
[*,4,9,8]  1 851 2 279 3 826
[*,5,9,8]  1 534 2 53 3 45
[*,6,9,8]  1 932 2 494 3 97
[*,7,9,8]  1 972 2 772 3 351
[*,8,9,8]  1 510 2 189 3 813
[*,9,9,8]  1 650 2 656 3 201
[*,10,9,8]  1 523 2 358 3 288
[*,1,10,8]  1 618 2 787 3 987
[*,2,10,8]  1 896 2 275 3 227
[*,3,10,8]  1 59 2 445 3 802
[*,4,10,8]  1 771 2 72 3 368
[*,5,10,8]  1 812 2 234 3 656
[*,6,10,8]  1 519 2 981 3 236
[*,7,10,8]  1 480 2 318 3 257
[*,8,10,8]  1 521 2 799 3 530
[*,9,10,8]  1 298 2 640 3 207
[*,10,10,8]  1 936 2 48 3 976
[*,1,1,9]  1 293 2 656 3 42
[*,2,1,9]  1 324 2 425 3 54
[*,3,1,9]  1 636 2 565 3 797
[*,4,1,9]  1 935 2 839 3 513
[*,5,1,9]  1 215 2 245 3 881
[*,6,1,9]  1 650 2 837 3 567
[*,7,1,9]  1 921 2 329 3 233
[*,8,1,9]  1 532 2 543 3 972
[*,9,1,9]  1 664 2 645 3 836
[*,10,1,9]  1 946 2 470 3 167
[*,1,2,9]  1 851 2 84 3 774
[*,2,2,9]  1 404 2 202 3 287
[*,3,2,9]  1 538 2 179 3 414
[*,4,2,9]  1 224 2 127 3 315
[*,5,2,9]  1 377 2 917 3 155
[*,6,2,9]  1 661 2 929 3 941
[*,7,2,9]  1 375 2 606 3 154
[*,8,2,9]  1 5 2 749 3 986
[*,9,2,9]  1 454 2 944 3 651
[*,10,2,9]  1 48 2 850 3 522
[*,1,3,9]  1 376 2 424 3 216
[*,2,3,9]  1 989 2 706 3 79
[*,3,3,9]  1 395 2 59 3 351
[*,4,3,9]  1 865 2 194 3 789
[*,5,3,9]  1 463 2 603 3 287
[*,6,3,9]  1 905 2 293 3 591
[*,7,3,9]  1 975 2 236 3 277
[*,8,3,9]  1 51 2 528 3 290
[*,9,3,9]  1 490 2 322 3 615
[*,10,3,9]  1 449 2 457 3 520
[*,1,4,9]  1 905 2 931 3 774
[*,2,4,9]  1 986 2 490 3 421
[*,3,4,9]  1 844 2 99 3 221
[*,4,4,9]  1 277 2 321 3 915
[*,5,4,9]  1 376 2 268 3 508
[*,6,4,9]  1 678 2 355 3 97
[*,7,4,9]  1 64 2 430 3 259
[*,8,4,9]  1 381 2 849 3 859
[*,9,4,9]  1 249 2 308 3 627
[*,10,4,9]  1 22 2 597 3 966
[*,1,5,9]  1 670 2 775 3 188
[*,2,5,9]  1 181 2 979 3 587
[*,3,5,9]  1 25 2 770 3 6
[*,4,5,9]  1 908 2 998 3 330
[*,5,5,9]  1 209 2 410 3 752
[*,6,5,9]  1 989 2 775 3 240
[*,7,5,9]  1 12 2 122 3 118
[*,8,5,9]  1 876 2 127 3 649
[*,9,5,9]  1 536 2 318 3 918
[*,10,5,9]  1 396 2 541 3 97
[*,1,6,9]  1 120 2 960 3 924
[*,2,6,9]  1 60 2 868 3 653
[*,3,6,9]  1 587 2 922 3 695
[*,4,6,9]  1 430 2 540 3 392
[*,5,6,9]  1 437 2 94 3 202
[*,6,6,9]  1 27 2 332 3 747
[*,7,6,9]  1 370 2 43 3 313
[*,8,6,9]  1 160 2 757 3 61
[*,9,6,9]  1 168 2 697 3 18
[*,10,6,9]  1 77 2 831 3 468
[*,1,7,9]  1 568 2 31 3 500
[*,2,7,9]  1 650 2 303 3 3
[*,3,7,9]  1 699 2 282 3 528
[*,4,7,9]  1 401 2 652 3 375
[*,5,7,9]  1 38 2 540 3 553
[*,6,7,9]  1 923 2 284 3 605
[*,7,7,9]  1 418 2 194 3 19
[*,8,7,9]  1 366 2 175 3 751
[*,9,7,9]  1 621 2 927 3 602
[*,10,7,9]  1 774 2 543 3 438
[*,1,8,9]  1 518 2 625 3 996
[*,2,8,9]  1 972 2 356 3 37
[*,3,8,9]  1 994 2 712 3 879
[*,4,8,9]  1 974 2 382 3 159
[*,5,8,9]  1 343 2 993 3 305
[*,6,8,9]  1 350 2 842 3 885
[*,7,8,9]  1 859 2 963 3 929
[*,8,8,9]  1 493 2 345 3 734
[*,9,8,9]  1 853 2 844 3 618
[*,10,8,9]  1 860 2 918 3 181
[*,1,9,9]  1 525 2 890 3 542
[*,2,9,9]  1 28 2 313 3 178
[*,3,9,9]  1 552 2 166 3 189
[*,4,9,9]  1 126 2 153 3 294
[*,5,9,9]  1 935 2 302 3 772
[*,6,9,9]  1 172 2 573 3 996
[*,7,9,9]  1 693 2 257 3 624
[*,8,9,9]  1 967 2 976 3 203
[*,9,9,9]  1 397 2 896 3 673
[*,10,9,9]  1 97 2 113 3 567
[*,1,10,9]  1 763 2 975 3 380
[*,2,10,9]  1 894 2 539 3 3
[*,3,10,9]  1 704 2 703 3 403
[*,4,10,9]  1 651 2 240 3 609
[*,5,10,9]  1 173 2 386 3 988
[*,6,10,9]  1 419 2 13 3 631
[*,7,10,9]  1 967 2 237 3 63
[*,8,10,9]  1 259 2 690 3 850
[*,9,10,9]  1 689 2 435 3 431
[*,10,10,9]  1 46 2 15 3 432
[*,1,1,10]  1 360 2 207 3 79
[*,2,1,10]  1 932 2 620 3 921
[*,3,1,10]  1 514 2 411 3 799
[*,4,1,10]  1 345 2 123 3 445
[*,5,1,10]  1 61 2 800 3 104
[*,6,1,10]  1 149 2 419 3 335
[*,7,1,10]  1 970 2 502 3 218
[*,8,1,10]  1 76 2 391 3 46
[*,9,1,10]  1 952 2 773 3 291
[*,10,1,10]  1 240 2 932 3 294
[*,1,2,10]  1 541 2 836 3 188
[*,2,2,10]  1 771 2 486 3 749
[*,3,2,10]  1 191 2 736 3 383
[*,4,2,10]  1 260 2 666 3 839
[*,5,2,10]  1 524 2 861 3 782
[*,6,2,10]  1 717 2 477 3 668
[*,7,2,10]  1 491 2 115 3 393
[*,8,2,10]  1 165 2 635 3 676
[*,9,2,10]  1 769 2 946 3 715
[*,10,2,10]  1 651 2 422 3 259
[*,1,3,10]  1 901 2 397 3 680
[*,2,3,10]  1 411 2 935 3 712
[*,3,3,10]  1 929 2 508 3 66
[*,4,3,10]  1 936 2 769 3 572
[*,5,3,10]  1 63 2 294 3 968
[*,6,3,10]  1 839 2 653 3 96
[*,7,3,10]  1 302 2 889 3 414
[*,8,3,10]  1 318 2 141 3 330
[*,9,3,10]  1 317 2 515 3 362
[*,10,3,10]  1 950 2 564 3 212
[*,1,4,10]  1 717 2 614 3 376
[*,2,4,10]  1 726 2 358 3 678
[*,3,4,10]  1 633 2 822 3 558
[*,4,4,10]  1 381 2 84 3 738
[*,5,4,10]  1 46 2 492 3 933
[*,6,4,10]  1 887 2 570 3 473
[*,7,4,10]  1 195 2 998 3 416
[*,8,4,10]  1 546 2 150 3 506
[*,9,4,10]  1 690 2 369 3 616
[*,10,4,10]  1 803 2 75 3 451
[*,1,5,10]  1 486 2 321 3 629
[*,2,5,10]  1 60 2 212 3 492
[*,3,5,10]  1 979 2 126 3 440
[*,4,5,10]  1 369 2 867 3 587
[*,5,5,10]  1 44 2 8 3 631
[*,6,5,10]  1 657 2 151 3 812
[*,7,5,10]  1 640 2 773 3 606
[*,8,5,10]  1 655 2 96 3 334
[*,9,5,10]  1 476 2 993 3 901
[*,10,5,10]  1 902 2 860 3 140
[*,1,6,10]  1 473 2 234 3 243
[*,2,6,10]  1 543 2 505 3 372
[*,3,6,10]  1 113 2 221 3 657
[*,4,6,10]  1 17 2 330 3 468
[*,5,6,10]  1 86 2 604 3 41
[*,6,6,10]  1 555 2 529 3 810
[*,7,6,10]  1 519 2 461 3 391
[*,8,6,10]  1 696 2 413 3 566
[*,9,6,10]  1 914 2 343 3 293
[*,10,6,10]  1 856 2 30 3 626
[*,1,7,10]  1 312 2 426 3 950
[*,2,7,10]  1 713 2 992 3 962
[*,3,7,10]  1 910 2 1000 3 904
[*,4,7,10]  1 475 2 697 3 434
[*,5,7,10]  1 21 2 718 3 814
[*,6,7,10]  1 621 2 61 3 664
[*,7,7,10]  1 127 2 660 3 20
[*,8,7,10]  1 877 2 886 3 405
[*,9,7,10]  1 375 2 849 3 843
[*,10,7,10]  1 729 2 186 3 184
[*,1,8,10]  1 990 2 403 3 390
[*,2,8,10]  1 25 2 149 3 424
[*,3,8,10]  1 161 2 251 3 204
[*,4,8,10]  1 956 2 68 3 826
[*,5,8,10]  1 327 2 589 3 164
[*,6,8,10]  1 78 2 908 3 253
[*,7,8,10]  1 820 2 880 3 238
[*,8,8,10]  1 1 2 304 3 439
[*,9,8,10]  1 238 2 799 3 639
[*,10,8,10]  1 838 2 610 3 642
[*,1,9,10]  1 231 2 588 3 868
[*,2,9,10]  1 588 2 132 3 174
[*,3,9,10]  1 626 2 759 3 565
[*,4,9,10]  1 984 2 366 3 966
[*,5,9,10]  1 514 2 83 3 679
[*,6,9,10]  1 366 2 778 3 997
[*,7,9,10]  1 620 2 492 3 856
[*,8,9,10]  1 49 2 396 3 75
[*,9,9,10]  1 447 2 810 3 62
[*,10,9,10]  1 279 2 137 3 933
[*,1,10,10]  1 309 2 405 3 57
[*,2,10,10]  1 953 2 681 3 614
[*,3,10,10]  1 909 2 648 3 776
[*,4,10,10]  1 961 2 784 3 207
[*,5,10,10]  1 71 2 861 3 614
[*,6,10,10]  1 761 2 21 3 130
[*,7,10,10]  1 931 2 798 3 990
[*,8,10,10]  1 921 2 868 3 598
[*,9,10,10]  1 397 2 184 3 940
[*,10,10,10]  1 123 2 172 3 768;

#param U :=  1 997.0 2 998.0 3 997.0;
#param pu :=  1 998.0 2 1000.0 3 1000.0;
#param pl :=  1 1.0 2 2.0 3 3.0;
